10J3M/DAT/10J3MNTA-20.dat
10 3
24.5545 602.9235
30.8634 952.5495
21.5522 464.4973
28.789 828.8065
27.3058 745.6067
21.6094 466.9662
21.9283 480.8503
13.9668 195.0715
26.4726 700.7986
25.5006 650.2806
1522.0876