10J3M/SOL/10J3MNTA-20.sol
solution status: optimal solution found
objective value:                     63.8777959954658
x#1#2                               0.226157998513312 	(obj:0)
x#3#2                                               1 	(obj:0)
x#4#1                                               1 	(obj:0)
x#5#2                               0.127653230658307 	(obj:0)
x#5#3                               0.872346769341693 	(obj:0)
x#6#2                               0.424812891988758 	(obj:0)
x#6#3                               0.575187108011242 	(obj:0)
x#7#3                                               1 	(obj:0)
x#8#1                               0.714841865042541 	(obj:0)
x#8#3                               0.285158134957459 	(obj:0)
x#9#2                                               1 	(obj:0)
x#10#1                              0.970021388079816 	(obj:0)
x#10#3                             0.0299786119201836 	(obj:0)
z                                    63.8777959954658 	(obj:1)
